p wcnf 148 222 223 
1 -148 -127 0 
1 -7 120 0 
1 19 -29 0 
1 -55 -2 0 
1 146 -106 0 
1 136 62 0 
1 138 -70 0 
1 143 -112 0 
1 88 -137 0 
1 107 45 0 
1 108 50 0 
1 9 -108 0 
1 50 -145 0 
1 100 89 0 
1 -97 50 0 
1 -43 5 0 
1 -130 -71 0 
1 -67 -36 0 
1 97 -81 0 
1 2 -1 0 
1 23 -142 0 
1 -107 145 0 
1 147 80 0 
1 -116 140 0 
1 61 -139 0 
1 104 -3 0 
1 50 124 0 
1 137 112 0 
1 -80 127 0 
1 -55 129 0 
1 -93 39 0 
1 89 93 0 
1 125 6 0 
1 -11 58 0 
1 -80 117 0 
1 143 83 0 
1 115 133 0 
1 104 -55 0 
1 -147 39 0 
1 -52 -83 0 
1 83 -135 0 
1 112 13 0 
1 105 -6 0 
1 -117 31 0 
1 1 2 0 
1 4 104 0 
1 -100 36 0 
1 -10 46 0 
1 6 -137 0 
1 -100 53 0 
1 53 -143 0 
1 -124 -141 0 
1 124 -58 0 
1 -75 96 0 
1 -58 74 0 
1 5 -33 0 
1 69 -89 0 
1 37 -63 0 
1 27 85 0 
1 -123 120 0 
1 129 -130 0 
1 11 -110 0 
1 -5 -15 0 
1 -9 -59 0 
1 75 60 0 
1 5 68 0 
1 -65 -125 0 
1 77 -141 0 
1 -9 -52 0 
1 79 -133 0 
1 -15 -134 0 
1 76 69 0 
1 19 -32 0 
1 26 63 0 
1 -37 75 0 
1 95 -5 0 
1 -107 95 0 
1 -28 -127 0 
1 128 -109 0 
1 84 -111 0 
1 -32 -24 0 
1 78 -143 0 
1 -2 121 0 
1 -42 -125 0 
1 52 -51 0 
1 -36 -90 0 
1 25 -79 0 
1 36 -4 0 
1 -127 -101 0 
1 145 -71 0 
1 9 80 0 
1 35 -98 0 
1 -123 146 0 
1 3 111 0 
1 -30 -2 0 
1 -20 -96 0 
1 120 -140 0 
1 105 102 0 
1 -65 135 0 
1 -14 -101 0 
1 121 -35 0 
1 103 123 0 
1 -131 -134 0 
1 72 93 0 
1 134 -85 0 
1 54 73 0 
1 -51 121 0 
1 69 18 0 
1 -20 108 0 
1 124 99 0 
1 142 -4 0 
1 -29 -102 0 
1 14 -36 0 
1 128 -107 0 
1 1 127 0 
1 134 -19 0 
1 120 -93 0 
1 104 48 0 
1 78 104 0 
1 -76 124 0 
1 135 91 0 
1 -125 -145 0 
1 9 -117 0 
1 -19 109 0 
1 -42 13 0 
1 -103 89 0 
1 -88 118 0 
1 -128 -20 0 
1 19 90 0 
1 126 -136 0 
1 -132 -96 0 
1 -140 -53 0 
1 -28 -103 0 
1 95 -129 0 
1 17 119 0 
1 141 43 0 
1 2 115 0 
1 -56 -73 0 
1 -55 -6 0 
1 -119 -28 0 
1 -68 -55 0 
1 -88 128 0 
1 -96 -57 0 
1 -18 40 0 
1 112 99 0 
1 -115 64 0 
1 -90 35 0 
1 -37 -144 0 
1 -88 -91 0 
1 120 -106 0 
1 141 45 0 
1 53 115 0 
1 93 -59 0 
1 -126 64 0 
1 -90 -35 0 
1 -19 -121 0 
1 15 -79 0 
1 108 -44 0 
1 -44 -40 0 
1 115 117 0 
1 -57 -126 0 
1 114 141 0 
1 -144 69 0 
1 122 -139 0 
1 148 41 0 
1 65 -71 0 
1 17 71 0 
1 -6 55 0 
1 -22 23 0 
1 132 -7 0 
1 -120 114 0 
1 -114 -92 0 
1 48 -29 0 
1 -57 -61 0 
1 29 -16 0 
1 92 56 0 
1 98 -3 0 
1 135 122 0 
1 92 88 0 
1 8 37 0 
1 36 -59 0 
1 -45 127 0 
1 -107 1 0 
1 13 -10 0 
1 -134 8 0 
1 -61 32 0 
1 -26 -135 0 
1 141 -58 0 
1 56 -147 0 
1 50 132 0 
1 99 -143 0 
1 103 21 0 
1 -38 -11 0 
1 119 128 0 
1 -122 104 0 
1 49 -7 0 
1 35 -136 0 
1 -125 -38 0 
1 5 -116 0 
1 36 -92 0 
1 69 -57 0 
1 -115 -56 0 
1 -17 141 0 
1 23 88 0 
1 -117 16 0 
1 -88 -22 0 
1 -31 -124 0 
1 37 61 0 
1 138 -20 0 
1 136 148 0 
1 96 76 0 
1 -37 93 0 
1 -92 -59 0 
1 116 -121 0 
1 80 -1 0 
1 1 -66 0 
1 -48 137 0 
1 91 -19 0 
1 -66 115 0 
1 129 25 0 
1 -80 -69 0 
1 12 -46 0 
